c defined variables: 
p cnf 85 57
a 1 2 3 4 5 6 7 8 9 10 11 12 13 0
d 14 4 8 13 0
d 15 2 3 4 8 13 0
d 16 2 4 6 7 9 10 12 0
d 17 3 5 8 10 11 0
d 18 5 9 0
d 19 0
d 20 1 5 7 9 11 0
d 21 2 0
d 22 13 0
d 23 5 12 13 0
d 24 8 0
d 25 1 0
d 26 3 7 9 13 0
d 27 4 8 10 13 0
2 -12 -14 -16 -17 0
-2 13 14 16 -19 0
3 -4 -15 16 -19 0
-4 -9 15 -18 -19 0
-2 4 -15 18 20 0
-2 4 -15 -17 -21 0
-3 -8 17 -20 -21 0
4 -8 15 18 21 0
6 12 -16 20 21 0
-5 -13 -16 17 -22 0
2 -5 16 18 -22 0
-9 13 -17 18 -22 0
3 -5 15 20 -22 0
-9 -13 -18 19 22 0
-6 -13 -14 -16 -23 0
-6 13 14 16 -23 0
5 -10 16 18 -23 0
1 -9 -19 20 -23 0
-6 10 16 21 -23 0
8 11 -16 17 23 0
7 -10 16 18 23 0
-3 4 14 15 -24 0
4 -13 14 -17 -24 0
-4 -12 -15 16 24 0
7 -12 -16 17 24 0
5 -7 -16 -20 24 0
-1 5 -20 23 24 0
-1 -7 -18 20 -25 0
-5 -8 -17 24 -25 0
-10 -11 -17 -19 25 0
5 -9 -18 -19 25 0
-4 8 -14 -22 25 0
4 7 16 23 25 0
-7 9 15 -20 -26 0
3 -10 -17 20 -26 0
-1 -9 24 25 -26 0
6 -12 -16 17 26 0
-7 -8 14 18 26 0
3 -9 -20 -21 26 0
-2 10 -16 23 26 0
-7 9 21 23 26 0
3 -13 -23 -24 26 0
7 12 23 25 26 0
-5 -10 15 -17 -27 0
-1 7 16 -20 -27 0
-3 10 -17 23 -27 0
-2 8 16 25 -27 0
6 9 16 25 -27 0
-10 -13 -19 25 -27 0
-8 -13 -15 -26 -27 0
-3 -8 -17 18 27 0
-5 7 14 -20 27 0
7 -10 -18 20 27 0
-7 -9 -20 21 27 0
7 10 20 -22 27 0
-7 8 -17 -26 27 0
5 -8 23 -26 27 0
